NAME : susy-integer.-434507.tour
COMMENT : Length = -434507
COMMENT : Found by LKH [Keld Helsgaun] Wed May 19 15:00:06 2021
TYPE : TOUR
DIMENSION : 18
TOUR_SECTION
1
11
15
4
17
3
5
2
6
8
14
16
12
9
7
10
13
18
-1
EOF
